Optimal - objective value 40.00000000
     11 x_1_16                  1                       0
     35 x_2_10                  1                       0
     65 x_3_21                  1                       0
    100 x_4_26                  1                       0
    110 x_5_5                   1                       0
    154 x_6_34                  1                       0
    155 x_7_0                   1                       0
    200 x_8_30                  1                       0
    227 x_9_30                  1                       0
    258 x_10_40                 1                      14
